100
-36 -22 0 0 0 0 -24 -38 6 0 0 92 62 0 0 0 0 -82 0 0 0 58 -20 64 0 0 8 0 0 0 0 0 -78 12 70 0 0 46 -58 0 0 0 -28 78 0 -86 0 98 -6 -78 0 0 98 0 0 -40 0 38 0 0 94 -26 0 34 32 18 -4 0 0 0 0 0 -20 0 66 0 -22 0 0 0 18 0 0 -18 -74 42 42 0 0 0 -10 -56 -48 98 0 76 0 0 12 0
0 0 61 -1 -85 11 0 0 0 57 53 0 0 -17 39 73 27 0 -95 -27 -17 0 0 0 -21 -55 0 17 -19 71 51 29 0 0 0 -61 -79 0 0 -89 -1 69 0 0 87 0 41 0 0 0 -57 99 0 -67 93 0 -83 0 -57 -33 0 0 61 0 0 0 0 27 -47 -11 49 17 0 43 0 -55 0 97 33 23 0 -89 -91 0 0 0 0 -25 39 -35 0 0 0 0 1 0 -27 31 0 -99
